Route #1: 4 92 182 57 133 147 31 74 32 56 85 165 45 108 38 23 117 114 86 52 106 22 70 195 158 154 
Route #2: 47 63 149 120 42 172 197 5 181 35 164 104 62 159 26 170 19 25 10 77 122 20 46 138 186 135 73 193 146 93 39 153 
Route #3: 48 131 24 156 15 179 7 68 18 196 124 43 3 136 180 102 184 27 80 148 116 95 44 90 103 200 79 162 96 
Route #4: 100 37 9 12 59 143 188 29 21 166 89 87 88 137 123 75 69 17 30 64 67 
Route #5: 140 54 155 65 177 128 99 94 168 53 160 112 109 189 125 151 101 192 50 157 33 173 
Route #6: 142 152 167 190 91 61 198 111 145 51 126 183 178 83 110 36 
Route #7: 150 163 28 6 49 14 132 78 171 130 187 
Route #8: 169 98 16 40 119 161 72 129 41 194 55 81 107 139 66 82 
Route #9: 174 97 84 199 127 118 105 176 113 58 134 191 71 144 115 121 11 13 8 60 1 76 34 2 141 185 175 
Cost 2481.6
